param set_len = 42;
param target_sum = 13145388356;
param values := [1] 411642741 [2] 300561509 [3] 671684592 [4] 717149929 [5] 971111775 [6] 188806079 [7] 840656684 [8] 938720349 [9] 528853979 [10] 386383552 [11] 611030395 [12] 454743793 [13] 831843084 [14] 295479320 [15] 634656734 [16] 367301344 [17] 134999106 [18] 981941643 [19] 636193092 [20] 1026836651 [21] 878466366 [22] 997806011 [23] 145903775 [24] 177986000 [25] 926891164 [26] 471676943 [27] 306616098 [28] 721530235 [29] 310413153 [30] 996946827 [31] 755242026 [32] 120109878 [33] 592483254 [34] 811034461 [35] 114887137 [36] 183991820 [37] 815274124 [38] 871825081 [39] 129465642 [40] 817432829 [41] 184665878 [42] 876057347 ;
